p cnf 30 40
-12 -22 25 0
-3 11 -13 0
-3 -17 20 0
11 -26 -29 0
-21 22 23 0
15 17 19 0
2 10 29 0
-10 16 -17 0
11 -13 22 0
-1 2 -25 0
10 27 -28 0
-7 22 -23 0
-6 8 -18 0
4 13 -20 0
2 -4 -20 0
-9 19 -22 0
3 -6 15 0
-3 7 29 0
-2 10 -17 0
8 23 -25 0
1 -16 -30 0
6 -16 -18 0
-12 18 -28 0
-5 19 24 0
-7 -10 28 0
-9 27 -30 0
-9 -15 18 0
-5 10 -29 0
-6 -9 -23 0
-1 -3 -25 0
-17 -21 -30 0
-2 -8 14 0
11 12 29 0
5 7 12 0
3 5 30 0
12 -14 18 0
6 17 -21 0
-1 -27 29 0
-10 -13 19 0
6 -19 30 0
